SCIP Status        : solving was interrupted [time limit reached]
Total Time         :    3600.01
  solving          :    3600.00
  presolving       :       0.19 (included in solving)
  reading          :       0.01
  copying          :       1.07 (42 #copies) (minimal 0.00, maximal 0.05, average 0.03)
Original Problem   :
  Problem name     : bbbenchmark/g05_60.2.cut
  Variables        : 61 (60 binary, 0 integer, 0 implicit integer, 1 continuous)
  Constraints      : 1 initial, 1 maximal
  Objective        : minimize, 1 non-zeros (abs.min = 1, abs.max = 1)
Presolved Problem  :
  Problem name     : t_bbbenchmark/g05_60.2.cut
  Variables        : 946 (60 binary, 0 integer, 885 implicit integer, 1 continuous)
  Constraints      : 886 initial, 8423 maximal
  Objective        : minimize, 1 non-zeros (abs.min = 1, abs.max = 1)
  Nonzeros         : 3601 constraint, 122 clique table
Presolvers         :   ExecTime  SetupTime  Calls  FixedVars   AggrVars   ChgTypes  ChgBounds   AddHoles    DelCons    AddCons   ChgSides   ChgCoefs
  boundshift       :       0.00       0.00      0          0          0          0          0          0          0          0          0          0
  convertinttobin  :       0.00       0.00      0          0          0          0          0          0          0          0          0          0
  domcol           :       0.00       0.00      1          0          0          0          0          0          0          0          0          0
  dualagg          :       0.00       0.00      0          0          0          0          0          0          0          0          0          0
  dualcomp         :       0.00       0.00      1          0          0          0          0          0          0          0          0          0
  dualinfer        :       0.00       0.00      0          0          0          0          0          0          0          0          0          0
  dualsparsify     :       0.00       0.00      1          0          0          0          0          0          0          0          0          0
  gateextraction   :       0.00       0.00      0          0          0          0          0          0          0          0          0          0
  implics          :       0.00       0.00      2          0          0          0          0          0          0          0          0          0
  inttobinary      :       0.00       0.00      0          0          0          0          0          0          0          0          0          0
  qpkktref         :       0.00       0.00      0          0          0          0          0          0          0          0          0          0
  redvub           :       0.00       0.00      0          0          0          0          0          0          0          0          0          0
  sparsify         :       0.00       0.00      1          0          0          0          0          0          0          0          0          0
  stuffing         :       0.00       0.00      0          0          0          0          0          0          0          0          0          0
  trivial          :       0.00       0.00      4          0          0          0          0          0          0          0          0          0
  tworowbnd        :       0.00       0.00      0          0          0          0          0          0          0          0          0          0
  dualfix          :       0.00       0.00      4          0          0          0          0          0          0          0          0          0
  genvbounds       :       0.00       0.00      0          0          0          0          0          0          0          0          0          0
  probing          :       0.10       0.00      1          0          0          0          0          0          0          0          0          0
  pseudoobj        :       0.00       0.00      1          0          0          0          1          0          0          0          0          0
  symmetry         :       0.00       0.00      0          0          0          0          0          0          0          0          0          0
  vbounds          :       0.00       0.00      1          0          0          0          0          0          0          0          0          0
  and              :       0.01       0.01      2          0          0          0          0          0          0          0          0          0
  linear           :       0.00       0.00      2          0          0          0          0          0          0          0          0          0
  logicor          :       0.00       0.00      0          0          0          0          0          0          0          0          0          0
  nonlinear        :       0.07       0.00      5          0          0          0          1          0          0        885          0          0
  benders          :       0.00       0.00      0          0          0          0          0          0          0          0          0          0
  components       :       0.00       0.00      1          0          0          0          0          0          0          0          0          0
  root node        :          -          -      -          0          -          -         41          -          -          -          -          -
Constraints        :     Number  MaxNumber  #Separate #Propagate    #EnfoLP    #EnfoRelax  #EnfoPS    #Check   #ResProp    Cutoffs    DomReds       Cuts    Applied      Conss   Children
  benderslp        :          0          0          0          0      81638          0          0      11929          0          0          0          0          0          0          0
  integral         :          0          0          0          0      81638          0          0      11929          0          0       6247          0          0       2343     159748
  and              :        885        885      91916     532424         15          0          0         29     116658         13    2862066        708        626          0          0
  linear           :          1+         7         83     532411         15          0          0         27          1          0          1          0          0          0          0
  logicor          :          0+      7534          0     141721          0          0          0          0        366        461         96          0          0          0          0
  benders          :          0          0          0          0         15          0          0         30          0          0          0          0          0          0          0
  countsols        :          0          0          0          0         15          0          0         30          0          0          0          0          0          0          0
  components       :          0          0          0          0          0          0          0          0          0          0          0          0          0          0          0
Constraint Timings :  TotalTime  SetupTime   Separate  Propagate     EnfoLP     EnfoPS     EnfoRelax   Check    ResProp    SB-Prop
  benderslp        :       0.06       0.00       0.00       0.00       0.06       0.00       0.00       0.00       0.00       0.00
  integral         :      39.54       0.00       0.00       0.00      39.53       0.00       0.00       0.01       0.00       0.00
  and              :      56.09       0.01      33.02      22.64       0.00       0.00       0.00       0.00       0.09       0.33
  linear           :       0.59       0.00       0.01       0.56       0.00       0.00       0.00       0.00       0.00       0.02
  logicor          :      21.10       0.00       0.00      21.08       0.00       0.00       0.00       0.00       0.00       0.02
  benders          :       0.00       0.00       0.00       0.00       0.00       0.00       0.00       0.00       0.00       0.00
  countsols        :       0.00       0.00       0.00       0.00       0.00       0.00       0.00       0.00       0.00       0.00
  components       :       0.18       0.00       0.00       0.18       0.00       0.00       0.00       0.00       0.00       0.00
Propagators        : #Propagate   #ResProp    Cutoffs    DomReds
  dualfix          :          4          0          0          0
  genvbounds       :          0          0          0          0
  nlobbt           :          0          0          0          0
  obbt             :          0          0          0          0
  probing          :          0          0          0          0
  pseudoobj        :     418328          0          0         42
  redcost          :     198459          0          0     321565
  rootredcost      :         23          0          0          0
  symmetry         :          0          0          0          0
  vbounds          :      34674          0          0          0
Propagator Timings :  TotalTime  SetupTime   Presolve  Propagate    ResProp    SB-Prop
  dualfix          :       0.00       0.00       0.00       0.00       0.00       0.00
  genvbounds       :       0.39       0.00       0.00       0.39       0.00       0.00
  nlobbt           :       0.00       0.00       0.00       0.00       0.00       0.00
  obbt             :       0.00       0.00       0.00       0.00       0.00       0.00
  probing          :       0.10       0.00       0.10       0.00       0.00       0.00
  pseudoobj        :       0.77       0.00       0.00       0.77       0.00       0.00
  redcost          :       7.88       0.00       0.00       7.87       0.00       0.01
  rootredcost      :       0.37       0.00       0.00       0.37       0.00       0.00
  symmetry         :       0.33       0.00       0.00       0.33       0.00       0.00
  vbounds          :       0.36       0.00       0.00       0.36       0.00       0.00
Conflict Analysis  :       Time      Calls    Success    DomReds  Conflicts   Literals    Reconvs ReconvLits   Dualrays   Nonzeros   LP Iters   (pool size: [10000,10000])
  propagation      :       0.01        474        337          -        404       28.8          0        0.0          -          -          -
  infeasible LP    :       0.00          0          0          -          0        0.0          0        0.0          6       39.0          0
  bound exceed. LP :      15.65      10286       7305          -      50372       36.8          2       26.5          0        0.0      60698
  strong branching :       0.00          0          0          -          0        0.0          0        0.0          -          -          0
  pseudo solution  :       0.00          0          0          -          0        0.0          0        0.0          -          -          -
  applied globally :       0.26          -          -          0      22959       36.4          -          -          6          -          -
  applied locally  :          -          -          -          0          0        0.0          -          -          0          -          -
Separators         :   ExecTime  SetupTime      Calls  RootCalls    Cutoffs    DomReds  FoundCuts ViaPoolAdd  DirectAdd    Applied ViaPoolApp  DirectApp      Conss
  cut pool         :       2.54          -      20359        109          -          -      22978     420055          -          -          -          -          -    (maximal pool size:       1387)
  aggregation      :     171.13       0.00       4506         83          0          0         24          2          0          0          0          0          0
  > cmir           :          -          -          -          -          -          -          -          2          0          0          0          0          -
  > flowcover      :          -          -          -          -          -          -          -          0          0          0          0          0          -
  > knapsackcover  :          -          -          -          -          -          -          -          0          0          0          0          0          -
  cgmip            :       0.00       0.00          0          0          0          0          0          0          0          0          0          0          0
  clique           :       0.00       0.00         83         83          0          0          0          0          0          0          0          0          0
  closecuts        :       0.00       0.00          0          0          0          0          0          0          0          0          0          0          0
  convexproj       :       0.00       0.00          0          0          0          0          0          0          0          0          0          0          0
  disjunctive      :       0.00       0.00          0          0          0          0          0          0          0          0          0          0          0
  eccuts           :       0.00       0.00          0          0          0          0          0          0          0          0          0          0          0
  gauge            :       0.00       0.00          0          0          0          0          0          0          0          0          0          0          0
  gomory           :       0.00       0.00          0          0          0          0          0          0          0          0          0          0          0
  > gomorymi       :          -          -          -          -          -          -          -          0          0          0          0          0          -
  > strongcg       :          -          -          -          -          -          -          -          0          0          0          0          0          -
  impliedbounds    :       0.09       0.00       4506         83          0          0         13          0          0          0          0          0          0
  interlattice     :       0.00       0.00          0          0          0          0          0          0          0          0          0          0          0
  interminor       :       0.00       0.00          0          0          0          0          0          0          0          0          0          0          0
  intersub         :       0.24       0.00         40         40          0          0         40          0         40         40          0         40          0
  intobj           :       0.00       0.00          0          0          0          0          0          0          0          0          0          0          0
  mcf              :       0.00       0.00          1          1          0          0          0          0          0          0          0          0          0
  minor            :       0.00       0.00          0          0          0          0          0          0          0          0          0          0          0
  mixing           :       0.01       0.00       4506         83          0          0          0          0          0          0          0          0          0
  oddcycle         :       0.00       0.00          0          0          0          0          0          0          0          0          0          0          0
  rapidlearning    :       0.01       0.00          0          0          0          0          0          0          0          0          0          0          0
  rlt              :       0.00       0.00         10         10          0          0          0          0          0          0          0          0          0
  zerohalf         :      22.48       0.00       3652         20          0          0      22941     420053          0      79147      79147          0          0
Cutselectors       :   ExecTime  SetupTime      Calls  RootCalls   Selected     Forced   Filtered  RootSelec   RootForc   RootFilt 
  hybrid           :       0.34       0.00      12427         81      79813          0     340990        233          0         24
Pricers            :   ExecTime  SetupTime      Calls       Vars
  problem variables:       0.00          -          0          0
Branching Rules    :   ExecTime  SetupTime   BranchLP  BranchExt   BranchPS    Cutoffs    DomReds       Cuts      Conss   Children
  allfullstrong    :       0.00       0.00          0          0          0          0          0          0          0          0
  cloud            :       0.00       0.00          0          0          0          0          0          0          0          0
  distribution     :       0.00       0.00          0          0          0          0          0          0          0          0
  fullstrong       :       0.00       0.00          0          0          0          0          0          0          0          0
  inference        :       0.00       0.00          0          0          0          0          0          0          0          0
  leastinf         :       0.00       0.00          0          0          0          0          0          0          0          0
  lookahead        :       0.00       0.00          0          0          0          0          0          0          0          0
  mostinf          :       0.00       0.00          0          0          0          0          0          0          0          0
  multaggr         :       0.00       0.00          0          0          0          0          0          0          0          0
  nodereopt        :       0.00       0.00          0          0          0          0          0          0          0          0
  pscost           :       0.00       0.00          0          0          0          0          0          0          0          0
  random           :       0.00       0.00          0          0          0          0          0          0          0          0
  relpscost        :      39.26       0.00      81623          0          0          0       6247          0       2345     159748
  vanillafullstrong:       0.00       0.00          0          0          0          0          0          0          0          0
Primal Heuristics  :   ExecTime  SetupTime      Calls      Found       Best
  LP solutions     :       0.02          -          -         15         15
  relax solutions  :       0.00          -          -          0          0
  pseudo solutions :       0.00          -          -          0          0
  strong branching :       0.03          -          -          0          0
  actconsdiving    :       0.00       0.00          0          0          0
  adaptivediving   :       9.06       0.00        304          1          1
  alns             :       3.11       0.00         29          7          5
  bound            :       0.00       0.00          0          0          0
  clique           :       0.00       0.00          1          0          0
  coefdiving       :       0.00       0.00          0          0          0
  completesol      :       0.00       0.00          0          0          0
  conflictdiving   :       8.45       0.00        413          0          0
  crossover        :       0.00       0.00          0          0          0
  dins             :       0.00       0.00          0          0          0
  distributiondivin:      24.82       0.00        413          0          0
  dps              :       0.00       0.00          0          0          0
  dualval          :       0.00       0.00          0          0          0
  farkasdiving     :       0.01       0.00          0          0          0
  feaspump         :       0.01       0.00          0          0          0
  fixandinfer      :       0.00       0.00          0          0          0
  fracdiving       :      15.25       0.00        413          0          0
  gins             :       0.00       0.00          0          0          0
  guideddiving     :      14.99       0.00        413          0          0
  indicator        :       0.12       0.00          0          0          0
  indicatordiving  :       0.00       0.00          0          0          0
  intdiving        :       0.00       0.00          0          0          0
  intshifting      :       0.08       0.00         19          0          0
  linesearchdiving :      13.41       0.00        413          1          1
  localbranching   :       0.00       0.00          0          0          0
  locks            :       0.01       0.00          1          0          0
  lpface           :       0.14       0.00          0          0          0
  mpec             :       1.41       0.00          1          0          0
  multistart       :       0.00       0.00          0          0          0
  mutation         :       0.00       0.00          0          0          0
  nlpdiving        :       5.09       0.00          8          0          0
  objpscostdiving  :      23.79       0.00         86          4          1
  octane           :       0.00       0.00          0          0          0
  ofins            :       0.09       0.00          0          0          0
  oneopt           :       0.14       0.00         33          0          0
  padm             :       0.00       0.00          0          0          0
  proximity        :       0.00       0.00          0          0          0
  pscostdiving     :      14.71       0.00        413          0          0
  randrounding     :       0.75       0.00      11895          0          0
  rens             :       0.00       0.00          0          0          0
  reoptsols        :       0.00       0.00          0          0          0
  repair           :       0.00       0.00          0          0          0
  rins             :       4.32       0.00         15          1          1
  rootsoldiving    :      10.20       0.00         34          1          0
  rounding         :       0.84       0.00       4274          0          0
  shiftandpropagate:       0.00       0.00          0          0          0
  shifting         :      29.11       0.00      13478          9          9
  simplerounding   :       0.19       0.00          0          0          0
  subnlp           :      89.93       0.00          0          0          0
  trivial          :       0.01       0.00          2          2          2
  trivialnegation  :       0.00       0.00          0          0          0
  trustregion      :       0.00       0.00          0          0          0
  trysol           :       0.20       0.00          0          0          0
  twoopt           :       0.00       0.00          0          0          0
  undercover       :       0.95       0.00          1          1          1
  vbounds          :       0.00       0.00          0          0          0
  veclendiving     :       8.32       0.00        413          0          0
  zeroobj          :       0.00       0.00          0          0          0
  zirounding       :       0.33       0.00       1000          0          0
  other solutions  :          -          -          -          0          -
Diving (single)    :      Calls      Nodes   LP Iters Backtracks  Conflicts   MinDepth   MaxDepth   AvgDepth  RoundSols  NLeafSols  MinSolDpt  MaxSolDpt  AvgSolDpt
  actconsdiving    :          0          -          -          -          -          -          -          -          -          -          -          -          -
  coefdiving       :          0          -          -          -          -          -          -          -          -          -          -          -          -
  conflictdiving   :        413       7649      67477        432       7666         23         49       33.1          0          -          -          -          -
  distributiondivin:        413       5376     163684        561       3967         21         39       27.1          0          -          -          -          -
  farkasdiving     :          0          -          -          -          -          -          -          -          -          -          -          -          -
  fracdiving       :        413      41168     140709        365       2513         25        251      113.9          0          -          -          -          -
  guideddiving     :        413      36046     145705        296       2287         29        239      101.7          0          -          -          -          -
  indicatordiving  :          0          -          -          -          -          -          -          -          -          -          -          -          -
  linesearchdiving :        413       9869     132412        540       7950         24         54       38.0          0          1         39         39       39.0
  pscostdiving     :        413       7426     152489        423       6866         23         45       32.2          0          -          -          -          -
  veclendiving     :        413       7774      70252        421       8421         28         51       33.0          0          -          -          -          -
Diving (adaptive)  :      Calls      Nodes   LP Iters Backtracks  Conflicts   MinDepth   MaxDepth   AvgDepth  RoundSols  NLeafSols  MinSolDpt  MaxSolDpt  AvgSolDpt
  actconsdiving    :         35        534      16778         51        354         23         33       28.1          0          1         31         31       31.0
  coefdiving       :         82       1513      11014         84       1554         28         41       32.5          0          -          -          -          -
  conflictdiving   :          0          -          -          -          -          -          -          -          -          -          -          -          -
  distributiondivin:          0          -          -          -          -          -          -          -          -          -          -          -          -
  farkasdiving     :          0          -          -          -          -          -          -          -          -          -          -          -          -
  fracdiving       :         20       2663       5970         13         86         70        231      147.6          0          -          -          -          -
  guideddiving     :         26       2107      10373         20        168         35        155       95.0          0          -          -          -          -
  indicatordiving  :          0          -          -          -          -          -          -          -          -          -          -          -          -
  linesearchdiving :         36        921      12243         52        732         27         52       39.7          0          -          -          -          -
  pscostdiving     :         45        765      15337         45        726         24         40       31.6          0          -          -          -          -
  veclendiving     :         60       1105       8446         62       1236         29         42       32.5          0          -          -          -          -
Neighborhoods      :      Calls  SetupTime  SolveTime SolveNodes       Sols       Best       Exp3  EpsGreedy        UCB TgtFixRate  Opt  Inf Node Stal  Sol  Usr Othr Actv
  rens             :          2       0.01       0.00          0          0          0    0.00000   -1.00000    0.30216      0.700    0    1    0    0    0    0    1    1
  rins             :          2       0.04       0.00          0          0          0    0.00000   -1.00000    0.30216      0.700    0    1    0    0    0    0    1    1
  mutation         :          5       0.22       0.33        157          2          2    0.00000   -1.00000    0.48629      0.585    1    2    0    2    0    0    0    1
  localbranching   :          5       0.25       0.27        155          1          1    0.00000   -1.00000    0.49965      0.641    1    2    0    2    0    0    0    1
  crossover        :          4       0.24       0.07          7          0          0    0.00000   -1.00000    0.53040      0.353    0    4    0    0    0    0    0    1
  proximity        :          5       0.22       0.71        144          3          1    0.00000   -1.00000    0.50292      0.641    1    2    0    2    0    0    0    1
  zeroobjective    :          3       0.16       0.24         77          0          0    0.00000   -1.00000    0.45483      0.662    0    2    0    1    0    0    0    1
  dins             :          3       0.08       0.03          9          1          1    0.00000   -1.00000    0.50609      0.550    1    1    0    0    0    0    1    1
  trustregion      :          0       0.00       0.00          0          0          0    0.00000   -1.00000    1.00000      0.900    0    0    0    0    0    0    0    0
Expressions        :   #IntEval  IntEvalTi   #RevProp  RevPropTi    DomReds    Cutoffs  #Estimate  EstimTime  Branching  #Simplify SimplifyTi Simplified
  pow              :          0       0.00          0       0.00          0          0          0       0.00          0          0       0.00          0
  prod             :       3540       0.00          0       0.00          0          0          0       0.00          0       2655       0.00          0
  sum              :          8       0.00          2       0.00          0          0          0       0.00          0          3       0.01          2
  var              :       3327       0.00          0       0.00          0          0          0       0.00          0       6378       0.01          0
  varidx           :          0       0.00          0       0.00          0          0          0       0.00          0          0       0.00          0
LP                 :       Time      Calls Iterations  Iter/call   Iter/sec  Time-0-It Calls-0-It    ItLimit
  primal LP        :     146.15      16054          0       0.00       0.00     146.11      16054
  dual LP          :    2713.36     186592   19997813     122.08    7370.13       7.52      22779
  lex dual LP      :       0.00          0          0       0.00          -
  barrier LP       :       0.00          0          0       0.00          -       0.00          0
  resolve instable :       0.00          0          0       0.00          -
  diving/probing LP:     105.12      10880    1235897     113.59   11757.01
  strong branching :      18.61       2839     208393      73.40   11197.90          -          -         43
    (at root node) :          -         19       5759     303.11          -
  conflict analysis:       7.88       6131      60698       9.90    7702.79
NLP relaxation     :
  solve time       :       4.20 (10 calls)
  convexity        :  nonconvex (1 linear rows, 0 convex ineq., 0 nonconvex ineq., 885 nonlinear eq. or two-sided ineq.)
NLP Solvers        :  #Problems  ProblemTi    #Solves  SolveTime      #Iter  Time/Iter      #Okay #TimeLimit #IterLimit #LObjLimit #Interrupt  #NumError #EvalError  #OutOfMem #LicenseEr #OtherTerm   #GlobOpt    #LocOpt  #Feasible #LocInfeas #GlobInfea #Unbounded   #Unknown
  ipopt            :          2       4.93         13       5.59        328       0.02         11          0          2          0          0          0          0          0          0          0          0          0          1          3          0          0          9
B&B Tree           :
  number of runs   :          1
  nodes            :     149674 (79874 internal, 69800 leaves)
  feasible leaves  :         15
  infeas. leaves   :         38
  objective leaves :      69746
  nodes (total)    :     149674 (79874 internal, 69800 leaves)
  nodes left       :      10039
  max depth        :         37
  max depth (total):         37
  backtracks       :      38796 (25.9%)
  early backtracks :          0 (0.0%)
  nodes exc. ref.  :          0 (0.0%)
  delayed cutoffs  :          1
  repropagations   :       2260 (98 domain reductions, 1 cutoffs)
  avg switch length:       4.22
  switching time   :     179.31
Estim. Tree Size   :    1339939
Estimation Tree    : 159749 nodes (149710 visited, 79874 internal, 69836 leaves, 10039 open), weight: 0.1054 completed 0.3362
Estimations        :      estim      value      trend resolution     smooth
  wbe              :    1325246          -          -          -          -
  tree-profile     :         -1          -          -          -          -
  gap              :     607467    0.90004    0.00005        128     615329
  tree-weight      :    1339940    0.10539    0.00019        128    1337513
  leaf-frequency   :     986901    0.46647    0.00001        128     919180
  ssg              :     763503    0.53018   -0.00022        128     757783
  open-nodes       :     299420 10039.00000    3.49740        128     298946
Root Node          :
  First LP value   : -1.00000000000000e+00
  First LP Iters   :        565 (28250.00 Iter/sec)
  First LP Time    :       0.02
  Final Dual Bound : -8.89510940827826e-01
  Final Root Iters :       3552
  Root LP Estimate : -5.31263638077206e-01
Solution           :
  Solutions found  :         42 (36 improvements)
  First Solution   : +1.00000000000000e+05   (in run 1, after 0 nodes, 0.04 seconds, depth 0, found by <trivial>)
  Gap First Sol.   :   infinite
  Gap Last Sol.    :      18.14 %
  Primal Bound     : -5.97740112994351e-01   (in run 1, after 61754 nodes, 1406.72 seconds, depth 20, found by <alns>)
  Dual Bound       : -6.64124293785311e-01
  Gap              :      11.11 %
Integrals          :      Total       Avg%
  primal-dual      :   54413.39      15.11
  primal-ref       :          -          - (not evaluated)
  dual-ref         :          -          - (not evaluated)
